B=4;
D=1;
P=7;
S=7;
demands = [2 1 1 4 4 5 4 ];
capacities = [9 8 7 6 4 2 6 ];
dist_start = [8 10 10 2 6 4 7 ];
dist = [1 4 6 2 2 7 6 1 9 7 1 7 5 4 9 5 10 5 2 3 8 1 4 5 1 3 7 6 8 5 4 9 8 1 10 1 9 8 1 8 6 3 4 2 7 2 6 6 8 ];
